Data path: /scratch/opt/lxu/CFLG/benchmarks/Kgroup_A
Instance: K100.4.con.red
Result path: /scratch/opt/lxu/CFLG/results/Kgroup_A
Solver: Gurobi
Time limit: 7200
Formulation: LEFPAV
Cover: Large
julia --project=. src/main.jl /scratch/opt/lxu/CFLG/benchmarks/Kgroup_A K100.4.con.red /scratch/opt/lxu/CFLG/results/Kgroup_A Gurobi 7200 LEFPAV Large
The latest version of Julia in the `release` channel is 1.11.5+0.x64.linux.gnu. You currently have `1.11.4+0.x64.linux.gnu` installed. Run:

  juliaup update

in your terminal shell to install Julia 1.11.5+0.x64.linux.gnu and update the `release` channel to that version.
/scratch/opt/lxu/CFLG/benchmarks/Kgroup_A Gurobi 7200.0 /scratch/opt/lxu/CFLG/results/Kgroup_A K100.4.con.red LEFPAV Large
/scratch/opt/lxu/CFLG/benchmarks/Kgroup_A/K100.4.con.red

 read graph
data loaded


after absorb:29 29

max_piece:4
problem_graph/original graph: node: 40/29 edge: 124/113 dlt: 0.6125142061016242 break_avg_len: 0.27908913423178855 break_max_len: 0.6125135935874181Vbar/V, Ebar/E(39, 40, 123, 124)
(1, 9)(1, 17)(1, 21)(1, 24)(2, 30)(9, 30)(2, 31)(13, 31)(2, 32)(15, 32)(2, 22)(2, 33)(21, 33)(2, 34)(24, 34)(3, 22)(2, 3)(3, 26)(3, 10)(5, 11)(3, 5)(5, 26)(5, 16)(3, 6)(6, 20)(6, 29)(6, 26)(6, 27)(5, 6)(6, 10)(1, 7)(7, 21)(7, 13)(7, 19)(7, 24)(7, 17)(7, 9)(2, 8)(2, 10)(10, 26)(8, 10)(11, 35)(14, 35)(11, 16)(11, 12)(12, 23)(12, 36)(14, 36)(12, 16)(1, 13)(9, 13)(13, 17)(13, 21)(13, 24)(1, 37)(14, 37)(14, 38)(19, 38)(14, 39)(25, 39)(14, 40)(17, 40)(1, 15)(7, 15)(9, 15)(13, 15)(15, 17)(15, 19)(15, 21)(15, 24)(16, 24)(9, 17)(18, 20)(18, 29)(18, 26)(6, 18)(1, 19)(19, 21)(13, 19)(17, 19)(9, 19)(11, 20)(5, 20)(9, 21)(17, 21)(21, 24)(21, 22)(22, 24)(1, 23)(21, 23)(22, 23)(13, 23)(23, 24)(15, 23)(16, 23)(17, 23)(9, 24)(1, 25)(21, 25)(13, 25)(19, 25)(24, 25)(15, 25)(7, 25)(17, 25)(9, 25)(2, 26)(8, 26)(2, 27)(3, 27)(26, 27)(8, 27)(10, 27)(27, 28)(8, 28)(10, 28)(3, 29)(20, 29)(27, 29)(26, 29)(5, 29)(8, 29)(10, 29)(Dict(22 => 0.0), [22], 40, 124)Set parameter TokenServer to value "solice01.zib.de"
Set parameter Threads to value 1
Set parameter OutputFlag to value 1
Gurobi Optimizer version 12.0.1 build v12.0.1rc0 (linux64 - "Debian GNU/Linux 12 (bookworm)")

CPU model: Intel(R) Xeon(R) Gold 5222 CPU @ 3.80GHz, instruction set [SSE2|AVX|AVX2|AVX512]
Thread count: 8 physical cores, 16 logical processors, using up to 1 threads

Non-default parameters:
Threads  1

Optimize a model with 164 rows, 372 columns and 620 nonzeros
Model fingerprint: 0x738b2b2a
Coefficient statistics:
  Matrix range     [1e+00, 1e+00]
  Objective range  [1e+00, 1e+00]
  Bounds range     [1e+00, 1e+00]
  RHS range        [1e+00, 1e+00]
Presolve removed 164 rows and 372 columns
Presolve time: 0.00s
Presolve: All rows and columns removed
Iteration    Objective       Primal Inf.    Dual Inf.      Time
       0    1.0000000e+00   0.000000e+00   0.000000e+00      0s

Solved in 0 iterations and 0.00 seconds (0.00 work units)
Optimal objective  1.000000000e+00

User-callback calls 35, time in user-callback 0.00 sec
elapsed CPU time: 1.299915 seconds
Set parameter TokenServer to value "solice01.zib.de"
Set parameter Threads to value 1
Set parameter OutputFlag to value 1
Set parameter MIPGap to value 0.0001
Set parameter MIPGapAbs to value 0.999998
Set parameter TimeLimit to value 7198.700085

 more cuts: false 0.6125142061016242 false
is_attach:trueformulation:LEFPAV0 124 0
Set parameter PreCrush to value 1

 model loaded

Gurobi Optimizer version 12.0.1 build v12.0.1rc0 (linux64 - "Debian GNU/Linux 12 (bookworm)")

CPU model: Intel(R) Xeon(R) Gold 5222 CPU @ 3.80GHz, instruction set [SSE2|AVX|AVX2|AVX512]
Thread count: 8 physical cores, 16 logical processors, using up to 1 threads

Non-default parameters:
TimeLimit  7198.700085
MIPGapAbs  0.999998
PreCrush  1
Threads  1

Optimize a model with 8649 rows, 4461 columns and 25450 nonzeros
Model fingerprint: 0x9a1395ce
Variable types: 288 continuous, 4173 integer (4173 binary)
Coefficient statistics:
  Matrix range     [1e-06, 1e+00]
  Objective range  [1e+00, 1e+00]
  Bounds range     [3e-02, 6e-01]
  RHS range        [1e-06, 1e+00]
Found heuristic solution: objective 21.0000000
Presolve removed 2090 rows and 372 columns
Presolve time: 0.06s
Presolved: 6559 rows, 4089 columns, 22109 nonzeros
Variable types: 163 continuous, 3926 integer (3926 binary)
Found heuristic solution: objective 19.0000000

Root relaxation: objective 1.086420e+00, 2613 iterations, 0.08 seconds (0.16 work units)

    Nodes    |    Current Node    |     Objective Bounds      |     Work
 Expl Unexpl |  Obj  Depth IntInf | Incumbent    BestBd   Gap | It/Node Time

     0     0    1.08642    0  201   19.00000    1.08642  94.3%     -    0s
H    0     0                      18.0000000    1.08642  94.0%     -    0s
H    0     0                      16.0000000    1.08642  93.2%     -    0s
H    0     0                      11.0000000    1.08642  90.1%     -    0s
H    0     0                       9.0000000    1.08642  87.9%     -    0s
H    0     0                       8.0000000    1.08642  86.4%     -    0s
H    0     0                       7.0000000    1.08642  84.5%     -    0s
H    0     0                       6.0000000    1.08642  81.9%     -    0s
elapsed CPU time: 1.3862305795959865e13 seconds
     0     0    1.73597    0  356    6.00000    1.73597  71.1%     -    0s
elapsed CPU time: 0.04464 seconds
     0     0    1.78070    0  353    6.00000    1.78070  70.3%     -    1s
elapsed CPU time: 0.033301 seconds
     0     0    1.78070    0  416    6.00000    1.78070  70.3%     -    1s
elapsed CPU time: 0.027734 seconds
     0     0    1.78070    0  417    6.00000    1.78070  70.3%     -    1s
elapsed CPU time: 0.027003 seconds
     0     0    2.03863    0  335    6.00000    2.03863  66.0%     -    1s
elapsed CPU time: 0.026287 seconds
     0     0    2.05545    0  335    6.00000    2.05545  65.7%     -    1s
elapsed CPU time: 0.026719 seconds
     0     0    2.50000    0  204    6.00000    2.50000  58.3%     -    1s
H    0     0                       5.0000000    2.50000  50.0%     -    1s
elapsed CPU time: 0.027263 seconds
     0     0    2.51567    0  349    5.00000    2.51567  49.7%     -    1s
elapsed CPU time: 0.027894 seconds
     0     0    2.52345    0  350    5.00000    2.52345  49.5%     -    1s
elapsed CPU time: 0.027483 seconds
     0     0    2.52381    0  326    5.00000    2.52381  49.5%     -    1s
elapsed CPU time: 0.026975 seconds
     0     0    2.52381    0  325    5.00000    2.52381  49.5%     -    1s
elapsed CPU time: 0.029086 seconds
     0     0    2.57212    0  282    5.00000    2.57212  48.6%     -    2s
elapsed CPU time: 0.029931 seconds
     0     0    2.58219    0  227    5.00000    2.58219  48.4%     -    2s
elapsed CPU time: 0.025736 seconds
     0     0    2.58230    0  347    5.00000    2.58230  48.4%     -    2s
elapsed CPU time: 9.212998690107584e12 seconds
     0     0    2.58580    0  305    5.00000    2.58580  48.3%     -    2s
elapsed CPU time: 0.030125 seconds
     0     0    2.59036    0  261    5.00000    2.59036  48.2%     -    2s
elapsed CPU time: 0.028547 seconds
     0     0    2.59091    0  331    5.00000    2.59091  48.2%     -    2s
elapsed CPU time: 0.028589 seconds
     0     0    2.59091    0  320    5.00000    2.59091  48.2%     -    2s
elapsed CPU time: 4.597554991908023e12 seconds
     0     0    2.59269    0  385    5.00000    2.59269  48.1%     -    2s
elapsed CPU time: 0.02863 seconds
     0     0    2.59282    0  392    5.00000    2.59282  48.1%     -    2s
elapsed CPU time: 0.030163 seconds
     0     0    2.59298    0  374    5.00000    2.59298  48.1%     -    2s
elapsed CPU time: 0.027178 seconds
     0     0    2.59436    0  342    5.00000    2.59436  48.1%     -    2s
elapsed CPU time: 1.8444051416977797e13 seconds
     0     0    2.59436    0  381    5.00000    2.59436  48.1%     -    2s
elapsed CPU time: 0.026791 seconds
     0     0    2.59436    0  320    5.00000    2.59436  48.1%     -    3s
elapsed CPU time: 0.029895 seconds
elapsed CPU time: 1.3737257943395496e13 seconds
     0     2    2.59658    0  298    5.00000    2.59658  48.1%     -    3s
    81    56    2.84500    5  323    5.00000    2.74483  45.1%   193    6s
   694   388    4.00000   11  109    5.00000    3.00000  40.0%   100   10s
   725   407    4.00000   17  381    5.00000    3.00000  40.0%   100   15s
   738   416    3.50000   19  425    5.00000    3.00000  40.0%  98.2   20s
   747   422    4.00000   18  407    5.00000    3.00000  40.0%  97.1   25s
H  748   400                       4.0000000    3.00000  25.0%  96.9   26s

Explored 751 nodes (138951 simplex iterations) in 28.44 seconds (35.74 work units)
Thread count was 1 (of 16 available processors)

Solution count 10: 4 4 4 ... 16

Optimal solution found (tolerance 1.00e-04)
Best objective 4.000000000000e+00, best bound 4.000000000000e+00, gap 0.0000%

User-callback calls 9451, time in user-callback 1.81 sec

 sepatime5.9854168838349375e13 15126 26
4.0Stat(MathOptInterface.OPTIMAL, 4.0, 4.0, 0.0, 5.9854168838349375e13, 1.299915, 28.440181016921997, 751, Main.CFLG.LEFPAV, "", #undef)
